Version identifier: 22.1.1.0 | 2022-11-28 | 9160aff4d
CPXPARAM_Read_DataCheck                          1
CPXPARAM_MIP_Strategy_NodeSelect                 0
CPXPARAM_MIP_Strategy_HeuristicFreq              1
CPXPARAM_TimeLimit                               60
Tried aggregator 2 times.
MIP Presolve eliminated 80 rows and 163 columns.
MIP Presolve added 32 rows and 0 columns.
MIP Presolve modified 2938 coefficients.
Aggregator did 8 substitutions.
Reduced MIP has 686 rows, 846 columns, and 4017 nonzeros.
Reduced MIP has 822 binaries, 0 generals, 0 SOSs, and 0 indicators.
Presolve time = 0.00 sec. (5.91 ticks)
Found incumbent of value 1296.000000 after 0.01 sec. (12.86 ticks)
Probing time = 0.00 sec. (2.72 ticks)
Tried aggregator 1 time.
Detecting symmetries...
Reduced MIP has 686 rows, 846 columns, and 4017 nonzeros.
Reduced MIP has 822 binaries, 0 generals, 0 SOSs, and 0 indicators.
Presolve time = 0.00 sec. (2.62 ticks)
Probing time = 0.00 sec. (2.70 ticks)
Clique table members: 2407.
MIP emphasis: balance optimality and feasibility.
MIP search method: dynamic search.
Parallel mode: deterministic, using up to 12 threads.
Root relaxation solution time = 0.00 sec. (2.46 ticks)

        Nodes                                         Cuts/
   Node  Left     Objective  IInf  Best Integer    Best Bound    ItCnt     Gap

*     0+    0                         1296.0000        0.0000           100.00%
*     0+    0                         1250.0000        0.0000           100.00%
      0     0      213.4216    43     1250.0000      213.4216       87   82.93%
      0     0      226.3181    36     1250.0000      Cuts: 53      144   81.89%
      0     0      228.0182    57     1250.0000      Cuts: 34      175   81.76%
      0     0      228.2476    64     1250.0000      Cuts: 37      208   81.74%
      0     0      228.2667    50     1250.0000      Cuts: 16      226   81.74%
      0     0      228.6500    21     1250.0000      Cuts: 34      261   81.71%
Detecting symmetries...
      0     0      228.9600    28     1250.0000      Cuts: 14      293   81.68%
      0     0      230.1250    51     1250.0000      Cuts: 43      331   81.59%
      0     0      230.6387    36     1250.0000     Cuts: 110      369   81.55%
      0     0      231.0500    32     1250.0000      Cuts: 77      400   81.52%
*     0+    0                          319.0000      231.0500            27.57%
      0     0      231.0500    34      319.0000      Cuts: 13      410   27.57%
      0     0      232.1600    35      319.0000       Cuts: 3      456   27.22%
      0     0      232.1905    38      319.0000      Cuts: 84      485   27.21%
      0     0      232.7655    62      319.0000      Cuts: 22      505   27.03%
      0     0      234.1750    72      319.0000      Cuts: 47      549   26.59%
      0     0      235.0000    53      319.0000      Cuts: 49      592   26.33%
      0     0      235.2100    57      319.0000      Cuts: 17      613   26.27%
      0     0      235.5000    16      319.0000      Cuts: 19      637   26.18%
      0     0      235.5143    65      319.0000      Cuts: 30      665   26.17%
*     0+    0                          296.0000      235.5143            20.43%
*     0+    0                          274.0000      235.5143            14.05%
      0     0  -1.00000e+75     0      274.0000      235.5143      665   14.05%
Detecting symmetries...

Repeating presolve.
Tried aggregator 1 time.
MIP Presolve eliminated 370 rows and 403 columns.
MIP Presolve added 2 rows and 0 columns.
MIP Presolve modified 25 coefficients.
Reduced MIP has 318 rows, 443 columns, and 1687 nonzeros.
Reduced MIP has 419 binaries, 0 generals, 0 SOSs, and 0 indicators.
Presolve time = 0.00 sec. (1.56 ticks)
Probing time = 0.00 sec. (1.30 ticks)
Cover probing fixed 0 vars, tightened 14 bounds.
Tried aggregator 1 time.
Detecting symmetries...
MIP Presolve modified 174 coefficients.
Reduced MIP has 318 rows, 443 columns, and 1687 nonzeros.
Reduced MIP has 419 binaries, 0 generals, 0 SOSs, and 0 indicators.
Presolve time = 0.00 sec. (1.25 ticks)
Represolve time = 0.01 sec. (6.48 ticks)
Probing time = 0.00 sec. (1.29 ticks)
Clique table members: 1149.
MIP emphasis: balance optimality and feasibility.
MIP search method: dynamic search.
Parallel mode: deterministic, using up to 12 threads.
Root relaxation solution time = 0.00 sec. (5.97 ticks)

        Nodes                                         Cuts/
   Node  Left     Objective  IInf  Best Integer    Best Bound    ItCnt     Gap

*     0+    0                          274.0000      237.4118            13.35%
      0     0      235.5143    64      274.0000      237.4118      932   13.35%
      0     0      236.2557    71      274.0000      Cuts: 17      961   13.35%
      0     0      237.0000    64      274.0000      Cuts: 76      999   13.35%
      0     0      238.2414    76      274.0000      Cuts: 18     1031   13.05%
      0     0      238.3175    68      274.0000      Cuts: 11     1040   13.02%
      0     0      239.1250    64      274.0000       Cuts: 9     1083   12.73%
      0     0      239.5652    83      274.0000      Cuts: 29     1113   12.57%
      0     0      239.7708    85      274.0000      Cuts: 13     1135   12.49%
      0     0      240.0137    81      274.0000      Cuts: 10     1176   12.40%
      0     0      240.0893    78      274.0000   MIRcuts: 12     1189   12.38%
      0     0      240.0962    77      274.0000      Cuts: 20     1202   12.37%
      0     0      240.5000    59      274.0000      Cuts: 11     1241   12.23%
      0     0      240.7333    73      274.0000      Cuts: 41     1283   12.14%
      0     0      241.2121    81      274.0000      Cuts: 27     1327   11.97%
      0     0      241.2222    77      274.0000      Cuts: 29     1340   11.96%
*     0+    0                          250.0000      241.2222             3.51%
Detecting symmetries...
      0     2      241.2222    77      250.0000      241.2222     1340    3.51%
Elapsed time = 0.63 sec. (380.14 ticks, tree = 0.02 MB, solutions = 6)

GUB cover cuts applied:  1
Clique cuts applied:  14
Cover cuts applied:  50
Implied bound cuts applied:  70
Flow cuts applied:  2
Mixed integer rounding cuts applied:  36
Zero-half cuts applied:  25
Gomory fractional cuts applied:  2

Root node processing (before b&c):
  Real time             =    0.62 sec. (379.88 ticks)
Parallel b&c, 12 threads:
  Real time             =    0.04 sec. (25.10 ticks)
  Sync time (average)   =    0.02 sec.
  Wait time (average)   =    0.00 sec.
                          ------------
Total (root+branch&cut) =    0.66 sec. (404.98 ticks)
